7.9	7.9	7.9	7.8
8	8	8	8
43	43	43	43
43	43	43	43
48	48	48	48
79.6	79.7	79.6	79.5
96	96	96	96
102	102	102	102
101.3	101.2	101.2	101.2
103	103	103	103
110	110	110	110
111	111	111	111
112	112	112	112
114	114	114	114
125.3	125.8	125.2	125.8
128	128	128	128
138	137.7	137.9	137.9
138	138	138	138
141	141	141	141
134.9	135.2	135	135.6
143.7	143.7	143.5	143.9
149	149	149	149
155	155	155	155
155.9	155.3	155.8	155.9
160	160	160	160
153.7	153.2	153.3	154.1
164	164	164	164
164	164	164	164
166	166	166	166
173	173	173	173
174	174	174	174
175	175	175	175
144.9	144.8	144.8	144.9
176	176	176	176
178	178	178	178
176.7	177	176.8	176.8
180.8	180.5	181.1	180.6
182	180.1	181.6	181.9
189	189	189	189
189.4	188.2	189.6	188.9
191	191	191	191
195	195	195	195
196	196	196	196
198	198	198	198
198	198	198	198
198	198	198	198
199	199	199	199
201	201	201	201
202	202	202	202
203	203	203	203
196	196	195.4	196
206.7	206.8	206.7	206.2
207	207	207	207
194.6	194.6	195.4	195.5
208	208	208	208
211	211	211	211
211	211	211	211
212	212	212	212
213	213	213	213
214	214	214	214
214.7	214.7	214.7	214.8
209.1	209	209	209.3
215.5	215.7	216.1	215.4
217	217	217	217
183	183	183	183
218	218	218	218
219	219	219	219
216.5	216.2	215.8	215.7
218.6	218.7	218.7	218.6
222	222	222	222
223	223	223	223
223	223	223	223
225	225	225	225
226	226	226	226
226	226	226	226
228.1	228.1	227.9	227.8
243	243	243	243
246	246	246	246
247	247	247	247
250	250	250	250
262	262	262	262
278	278	278	278
287	287	287	287
296	296	296	296
299	299	299	299
300	300	300	300
301	300.9	300.9	301
304	304	303.9	304
304	304	304	304
304	304	304	304
307	307	307	307
308	308	308	308
308	308	308	308
309	309	309	309
310	310	310	310
315	315	315	315
290.2	290.4	290.4	290.4
317	317	317	317
317	317	317	317
318	318	318	318
319	319	319	319
324	324	324	324
325	325	325	325
325	325	325	325
329	329	329	329
329	329	329	329
331	331	331	331
332	332	332	332
333	333	333	333
330	330	330	329.8
335	335	335	335
336	336	336	336
340	340	340	340
343	343	343	343
302.7	302.7	302.6	303
340.6	340.1	340.8	339.8
344.3	344.5	344.6	344.8
347	347	347	347
346	346	346	346
346	346	346	346
348	348	348	348
350	350	350	350
351	351	351	351
352	352	352	352
352	352	352	352
352	352	352	352
353	353	353	353
354	354	354	354
354	354	354	354
340.4	340.3	340.8	340.5
356	356	356	356
356	356	356	356
357	357	357	357
358	358	358	358
357	357	357	357
360	360	360	360
348.2	347.8	348.4	347.5
338.5	340.4	339.7	339.6
350.5	350.3	350.3	350.3
348.2	346.9	347.2	347.7
369	369	369	369
354.5	354.1	353.3	354.6
370	370	370	370
371	371	371	371
345.1	345	344.5	344.7
329	328.9	329	329
371	371	371	371
344.7	345.1	344.8	344.8
372	372	372	372
373	373	373	373
373	373	373	373
349.3	348.9	348.1	348.1
374.6	374.8	374.8	375
375	375	375	375
376	376	376	376
376	376	376	376
376	376	376	376
377	377	377	377
377	377	377	377
380	380	380	380
380	380	380	380
381	381	381	381
365.9	365.5	365.7	365.7
382	382	382	382
355.8	355.2	355.2	355.9
382	382	382	382
383	383	383	383
383	383	383	383
384	384	384	384
385	385	385	385
386	386	386	386
359.5	359.5	359.3	359.7
387	387	387	387
388	388	388	388
388	388	388	388
376.4	376.8	376.6	376.3
390	390	390	390
392	392	392	392
393	393	393	393
394	394	394	394
396	396	396	396
397	397	397	397
400	400	400	400
390.8	391.4	390.2	391.5
403	403	403	403
375	374.9	375.2	374.6
406	406	406	406
406	406	406	406
408	407.9	408	408
407.3	407.1	407.1	407.5
411	411	411	411
582.3	581.7	582.2	582.2
747.6	748.4	748.5	748.7
0	0	0	0
